(set-info :original "/tmp/sea-9eCBlc/terminator_02_true-unreach-call_true-termination.pp.ms.o.bc")
(set-info :authors "SeaHorn v.0.1.0-rc3")
(declare-rel verifier.error (Bool Bool Bool ))
(declare-rel main@entry (Int Int ))
(declare-rel main@.lr.ph.split.us (Int Int Int ))
(declare-rel main@_bb (Int Int Int ))
(declare-rel main@precall.split ())
(declare-var main@%_21_0 Bool )
(declare-var main@%_22_0 Bool )
(declare-var main@%.1.i_0 Bool )
(declare-var main@%_23_0 Bool )
(declare-var main@%_24_0 Bool )
(declare-var main@%_16_0 Bool )
(declare-var main@%z.0.i.ph8.lcssa33_1 Int )
(declare-var main@%.lcssa_1 Int )
(declare-var main@%_19_0 Bool )
(declare-var main@%_20_0 Bool )
(declare-var main@%..i2_0 Bool )
(declare-var main@%.lcssa35_1 Int )
(declare-var main@%.lcssa34_1 Int )
(declare-var main@%_12_0 Int )
(declare-var @__VERIFIER_nondet_bool_0 Int )
(declare-var main@%_13_0 Bool )
(declare-var main@%x.0.i3.us.lcssa_1 Int )
(declare-var main@%_0_0 Int )
(declare-var @__VERIFIER_nondet_int_0 Int )
(declare-var main@%_2_0 Int )
(declare-var main@%_4_0 Int )
(declare-var main@%.off.i_0 Int )
(declare-var main@%_6_0 Bool )
(declare-var main@%.off4.i_0 Int )
(declare-var main@%_7_0 Bool )
(declare-var main@%_8_0 Bool )
(declare-var main@%_9_0 Bool )
(declare-var main@%_10_0 Bool )
(declare-var main@%..i27_0 Bool )
(declare-var main@entry_0 Bool )
(declare-var main@%_1_0 Int )
(declare-var main@%_5_0 Int )
(declare-var main@.lr.ph.split.us.preheader_0 Bool )
(declare-var main@.lr.ph.split.us_0 Bool )
(declare-var main@%x.0.i.ph10_0 Int )
(declare-var main@%z.0.i.ph8_0 Int )
(declare-var main@%x.0.i.ph10_1 Int )
(declare-var main@%z.0.i.ph8_1 Int )
(declare-var main@precall_0 Bool )
(declare-var main@%z.0.i.ph.lcssa_0 Int )
(declare-var main@%x.0.i.lcssa_0 Int )
(declare-var main@%z.0.i.ph.lcssa_1 Int )
(declare-var main@%x.0.i.lcssa_1 Int )
(declare-var main@precall.split_0 Bool )
(declare-var main@_bb_0 Bool )
(declare-var main@%x.0.i3.us_0 Int )
(declare-var main@%x.0.i3.us_1 Int )
(declare-var main@.outer_0 Bool )
(declare-var main@%x.0.i3.us.lcssa_0 Int )
(declare-var main@%_17_0 Int )
(declare-var main@%_18_0 Int )
(declare-var main@%z.0.i.ph8_2 Int )
(declare-var main@_bb1_0 Bool )
(declare-var main@%_15_0 Int )
(declare-var main@_bb_1 Bool )
(declare-var main@%x.0.i3.us_2 Int )
(declare-var main@precall.loopexit31_0 Bool )
(declare-var main@%.lcssa35_0 Int )
(declare-var main@%.lcssa34_0 Int )
(declare-var main@precall.loopexit_0 Bool )
(declare-var main@%z.0.i.ph8.lcssa33_0 Int )
(declare-var main@%.lcssa_0 Int )
(declare-var main@%z.0.i.ph.lcssa_2 Int )
(declare-var main@%x.0.i.lcssa_2 Int )
(rule (verifier.error false false false))
(rule (verifier.error false true true))
(rule (verifier.error true false true))
(rule (verifier.error true true true))
(rule (main@entry @__VERIFIER_nondet_bool_0 @__VERIFIER_nondet_int_0))
(rule (let ((a!1 (and (main@entry @__VERIFIER_nondet_bool_0 @__VERIFIER_nondet_int_0)
                true
                (= main@%_0_0 @__VERIFIER_nondet_int_0)
                (= main@%_2_0 @__VERIFIER_nondet_int_0)
                (= main@%_4_0 @__VERIFIER_nondet_int_0)
                (= main@%.off.i_0 (+ main@%_1_0 99))
                (= main@%_6_0
                   (ite (>= main@%.off.i_0 0) (< main@%.off.i_0 199) false))
                (= main@%.off4.i_0 (+ main@%_5_0 99))
                (= main@%_7_0
                   (ite (>= main@%.off4.i_0 0) (< main@%.off4.i_0 199) false))
                (= main@%_8_0 (and main@%_6_0 main@%_7_0))
                main@%_8_0
                (= main@%_9_0 (< main@%_1_0 100))
                (= main@%_10_0 (> main@%_5_0 100))
                (= main@%..i27_0 (and main@%_10_0 main@%_9_0))
                (=> main@.lr.ph.split.us.preheader_0
                    (and main@.lr.ph.split.us.preheader_0 main@entry_0))
                (=> (and main@.lr.ph.split.us.preheader_0 main@entry_0)
                    main@%..i27_0)
                (=> main@.lr.ph.split.us_0
                    (and main@.lr.ph.split.us_0
                         main@.lr.ph.split.us.preheader_0))
                main@.lr.ph.split.us_0
                (=> (and main@.lr.ph.split.us_0
                         main@.lr.ph.split.us.preheader_0)
                    (= main@%x.0.i.ph10_0 main@%_1_0))
                (=> (and main@.lr.ph.split.us_0
                         main@.lr.ph.split.us.preheader_0)
                    (= main@%z.0.i.ph8_0 main@%_5_0))
                (=> (and main@.lr.ph.split.us_0
                         main@.lr.ph.split.us.preheader_0)
                    (= main@%x.0.i.ph10_1 main@%x.0.i.ph10_0))
                (=> (and main@.lr.ph.split.us_0
                         main@.lr.ph.split.us.preheader_0)
                    (= main@%z.0.i.ph8_1 main@%z.0.i.ph8_0)))))
  (=> a!1
      (main@.lr.ph.split.us
        main@%z.0.i.ph8_1
        main@%x.0.i.ph10_1
        @__VERIFIER_nondet_bool_0))))
(rule (let ((a!1 (and (main@entry @__VERIFIER_nondet_bool_0 @__VERIFIER_nondet_int_0)
                true
                (= main@%_0_0 @__VERIFIER_nondet_int_0)
                (= main@%_2_0 @__VERIFIER_nondet_int_0)
                (= main@%_4_0 @__VERIFIER_nondet_int_0)
                (= main@%.off.i_0 (+ main@%_1_0 99))
                (= main@%_6_0
                   (ite (>= main@%.off.i_0 0) (< main@%.off.i_0 199) false))
                (= main@%.off4.i_0 (+ main@%_5_0 99))
                (= main@%_7_0
                   (ite (>= main@%.off4.i_0 0) (< main@%.off4.i_0 199) false))
                (= main@%_8_0 (and main@%_6_0 main@%_7_0))
                main@%_8_0
                (= main@%_9_0 (< main@%_1_0 100))
                (= main@%_10_0 (> main@%_5_0 100))
                (= main@%..i27_0 (and main@%_10_0 main@%_9_0))
                (=> main@precall_0 (and main@precall_0 main@entry_0))
                (=> (and main@precall_0 main@entry_0) (not main@%..i27_0))
                (=> (and main@precall_0 main@entry_0)
                    (= main@%z.0.i.ph.lcssa_0 main@%_5_0))
                (=> (and main@precall_0 main@entry_0)
                    (= main@%x.0.i.lcssa_0 main@%_1_0))
                (=> (and main@precall_0 main@entry_0)
                    (= main@%z.0.i.ph.lcssa_1 main@%z.0.i.ph.lcssa_0))
                (=> (and main@precall_0 main@entry_0)
                    (= main@%x.0.i.lcssa_1 main@%x.0.i.lcssa_0))
                (=> main@precall_0 (= main@%_21_0 (> main@%x.0.i.lcssa_1 99)))
                (=> main@precall_0
                    (= main@%_22_0 (< main@%z.0.i.ph.lcssa_1 101)))
                (=> main@precall_0
                    (= main@%.1.i_0 (or main@%_22_0 main@%_21_0)))
                (=> main@precall_0 (not main@%_23_0))
                (=> main@precall_0 (= main@%_24_0 (= main@%.1.i_0 false)))
                (=> main@precall_0 main@%_24_0)
                (=> main@precall.split_0
                    (and main@precall.split_0 main@precall_0))
                main@precall.split_0)))
  (=> a!1 main@precall.split)))
(rule (=> (and (main@.lr.ph.split.us
           main@%z.0.i.ph8_0
           main@%x.0.i.ph10_0
           @__VERIFIER_nondet_bool_0)
         true
         (=> main@_bb_0 (and main@_bb_0 main@.lr.ph.split.us_0))
         main@_bb_0
         (=> (and main@_bb_0 main@.lr.ph.split.us_0)
             (= main@%x.0.i3.us_0 main@%x.0.i.ph10_0))
         (=> (and main@_bb_0 main@.lr.ph.split.us_0)
             (= main@%x.0.i3.us_1 main@%x.0.i3.us_0)))
    (main@_bb main@%x.0.i3.us_1 main@%z.0.i.ph8_0 @__VERIFIER_nondet_bool_0)))
(rule (let ((a!1 (and (main@_bb main@%x.0.i3.us_0
                          main@%z.0.i.ph8_0
                          @__VERIFIER_nondet_bool_0)
                true
                (= main@%_12_0 @__VERIFIER_nondet_bool_0)
                (=> main@.outer_0 (and main@.outer_0 main@_bb_0))
                (=> (and main@.outer_0 main@_bb_0) (not main@%_13_0))
                (=> (and main@.outer_0 main@_bb_0)
                    (= main@%x.0.i3.us.lcssa_0 main@%x.0.i3.us_0))
                (=> (and main@.outer_0 main@_bb_0)
                    (= main@%x.0.i3.us.lcssa_1 main@%x.0.i3.us.lcssa_0))
                (=> main@.outer_0
                    (= main@%_17_0 (+ main@%x.0.i3.us.lcssa_1 (- 1))))
                (=> main@.outer_0 (= main@%_18_0 (+ main@%z.0.i.ph8_0 (- 1))))
                (=> main@.outer_0
                    (= main@%_19_0 (< main@%x.0.i3.us.lcssa_1 101)))
                (=> main@.outer_0 (= main@%_20_0 (> main@%_18_0 100)))
                (=> main@.outer_0
                    (= main@%..i2_0 (and main@%_20_0 main@%_19_0)))
                (=> main@.lr.ph.split.us_0
                    (and main@.lr.ph.split.us_0 main@.outer_0))
                main@.lr.ph.split.us_0
                (=> (and main@.lr.ph.split.us_0 main@.outer_0) main@%..i2_0)
                (=> (and main@.lr.ph.split.us_0 main@.outer_0)
                    (= main@%x.0.i.ph10_0 main@%_17_0))
                (=> (and main@.lr.ph.split.us_0 main@.outer_0)
                    (= main@%z.0.i.ph8_1 main@%_18_0))
                (=> (and main@.lr.ph.split.us_0 main@.outer_0)
                    (= main@%x.0.i.ph10_1 main@%x.0.i.ph10_0))
                (=> (and main@.lr.ph.split.us_0 main@.outer_0)
                    (= main@%z.0.i.ph8_2 main@%z.0.i.ph8_1)))))
  (=> a!1
      (main@.lr.ph.split.us
        main@%z.0.i.ph8_2
        main@%x.0.i.ph10_1
        @__VERIFIER_nondet_bool_0))))
(rule (let ((a!1 (and (main@_bb main@%x.0.i3.us_0
                          main@%z.0.i.ph8_0
                          @__VERIFIER_nondet_bool_0)
                true
                (= main@%_12_0 @__VERIFIER_nondet_bool_0)
                (=> main@_bb1_0 (and main@_bb1_0 main@_bb_0))
                (=> (and main@_bb1_0 main@_bb_0) main@%_13_0)
                (=> main@_bb1_0 (= main@%_15_0 (+ main@%x.0.i3.us_0 1)))
                (=> main@_bb1_0 (= main@%_16_0 (< main@%_15_0 100)))
                (=> main@_bb_1 (and main@_bb_1 main@_bb1_0))
                main@_bb_1
                (=> (and main@_bb_1 main@_bb1_0) main@%_16_0)
                (=> (and main@_bb_1 main@_bb1_0)
                    (= main@%x.0.i3.us_1 main@%_15_0))
                (=> (and main@_bb_1 main@_bb1_0)
                    (= main@%x.0.i3.us_2 main@%x.0.i3.us_1)))))
  (=> a!1
      (main@_bb main@%x.0.i3.us_2 main@%z.0.i.ph8_0 @__VERIFIER_nondet_bool_0))))
(rule (let ((a!1 (and (main@_bb main@%x.0.i3.us_0
                          main@%z.0.i.ph8_0
                          @__VERIFIER_nondet_bool_0)
                true
                (= main@%_12_0 @__VERIFIER_nondet_bool_0)
                (=> main@.outer_0 (and main@.outer_0 main@_bb_0))
                (=> (and main@.outer_0 main@_bb_0) (not main@%_13_0))
                (=> (and main@.outer_0 main@_bb_0)
                    (= main@%x.0.i3.us.lcssa_0 main@%x.0.i3.us_0))
                (=> (and main@.outer_0 main@_bb_0)
                    (= main@%x.0.i3.us.lcssa_1 main@%x.0.i3.us.lcssa_0))
                (=> main@.outer_0
                    (= main@%_17_0 (+ main@%x.0.i3.us.lcssa_1 (- 1))))
                (=> main@.outer_0 (= main@%_18_0 (+ main@%z.0.i.ph8_0 (- 1))))
                (=> main@.outer_0
                    (= main@%_19_0 (< main@%x.0.i3.us.lcssa_1 101)))
                (=> main@.outer_0 (= main@%_20_0 (> main@%_18_0 100)))
                (=> main@.outer_0
                    (= main@%..i2_0 (and main@%_20_0 main@%_19_0)))
                (=> main@precall.loopexit31_0
                    (and main@precall.loopexit31_0 main@.outer_0))
                (=> (and main@precall.loopexit31_0 main@.outer_0)
                    (not main@%..i2_0))
                (=> (and main@precall.loopexit31_0 main@.outer_0)
                    (= main@%.lcssa35_0 main@%_18_0))
                (=> (and main@precall.loopexit31_0 main@.outer_0)
                    (= main@%.lcssa34_0 main@%_17_0))
                (=> (and main@precall.loopexit31_0 main@.outer_0)
                    (= main@%.lcssa35_1 main@%.lcssa35_0))
                (=> (and main@precall.loopexit31_0 main@.outer_0)
                    (= main@%.lcssa34_1 main@%.lcssa34_0))
                (=> main@_bb1_0 (and main@_bb1_0 main@_bb_0))
                (=> (and main@_bb1_0 main@_bb_0) main@%_13_0)
                (=> main@_bb1_0 (= main@%_15_0 (+ main@%x.0.i3.us_0 1)))
                (=> main@_bb1_0 (= main@%_16_0 (< main@%_15_0 100)))
                (=> main@precall.loopexit_0
                    (and main@precall.loopexit_0 main@_bb1_0))
                (=> (and main@precall.loopexit_0 main@_bb1_0) (not main@%_16_0))
                (=> (and main@precall.loopexit_0 main@_bb1_0)
                    (= main@%z.0.i.ph8.lcssa33_0 main@%z.0.i.ph8_0))
                (=> (and main@precall.loopexit_0 main@_bb1_0)
                    (= main@%.lcssa_0 main@%_15_0))
                (=> (and main@precall.loopexit_0 main@_bb1_0)
                    (= main@%z.0.i.ph8.lcssa33_1 main@%z.0.i.ph8.lcssa33_0))
                (=> (and main@precall.loopexit_0 main@_bb1_0)
                    (= main@%.lcssa_1 main@%.lcssa_0))
                (=> main@precall_0
                    (or (and main@precall_0 main@precall.loopexit31_0)
                        (and main@precall_0 main@precall.loopexit_0)))
                (=> (and main@precall_0 main@precall.loopexit31_0)
                    (= main@%z.0.i.ph.lcssa_0 main@%.lcssa35_1))
                (=> (and main@precall_0 main@precall.loopexit31_0)
                    (= main@%x.0.i.lcssa_0 main@%.lcssa34_1))
                (=> (and main@precall_0 main@precall.loopexit_0)
                    (= main@%z.0.i.ph.lcssa_1 main@%z.0.i.ph8.lcssa33_1))
                (=> (and main@precall_0 main@precall.loopexit_0)
                    (= main@%x.0.i.lcssa_1 main@%.lcssa_1))
                (=> (and main@precall_0 main@precall.loopexit31_0)
                    (= main@%z.0.i.ph.lcssa_2 main@%z.0.i.ph.lcssa_0))
                (=> (and main@precall_0 main@precall.loopexit31_0)
                    (= main@%x.0.i.lcssa_2 main@%x.0.i.lcssa_0))
                (=> (and main@precall_0 main@precall.loopexit_0)
                    (= main@%z.0.i.ph.lcssa_2 main@%z.0.i.ph.lcssa_1))
                (=> (and main@precall_0 main@precall.loopexit_0)
                    (= main@%x.0.i.lcssa_2 main@%x.0.i.lcssa_1))
                (=> main@precall_0 (= main@%_21_0 (> main@%x.0.i.lcssa_2 99)))
                (=> main@precall_0
                    (= main@%_22_0 (< main@%z.0.i.ph.lcssa_2 101)))
                (=> main@precall_0
                    (= main@%.1.i_0 (or main@%_22_0 main@%_21_0)))
                (=> main@precall_0 (not main@%_23_0))
                (=> main@precall_0 (= main@%_24_0 (= main@%.1.i_0 false)))
                (=> main@precall_0 main@%_24_0)
                (=> main@precall.split_0
                    (and main@precall.split_0 main@precall_0))
                main@precall.split_0)))
  (=> a!1 main@precall.split)))
(query main@precall.split)

